% Generated by MiniZinc 2.9.3
% Solver library: /home/icwmmarijnisse/Pumpkin/minizinc/lib
% Command line invocation: minizinc --compile --fzn ./instance.fzn --ozn ./instance.ozn --solver pumpkin ../../../../benchmarks/models/rcpsp/rcpsp.mzn ../../../../benchmarks/models/rcpsp/J90_42_2.dzn 

predicate pumpkin_cumulative(array [int] of var int: s,array [int] of int: d,array [int] of int: r,int: b);
array [1..2] of int: X_INTRODUCED_109_ = [1,-1];
array [1..67] of int: X_INTRODUCED_196_ = [6,4,5,1,10,9,2,7,8,6,3,10,7,1,3,9,1,7,1,5,8,5,9,2,8,1,9,10,7,2,7,1,2,7,3,7,4,3,1,6,5,9,2,8,2,8,4,4,1,9,9,1,1,7,5,6,10,3,3,10,2,6,9,5,3,9,6];
array [1..67] of int: X_INTRODUCED_197_ = [8,10,8,5,9,9,2,7,3,2,8,1,1,8,4,2,3,3,4,6,7,4,9,4,6,10,2,10,1,5,1,8,5,3,6,6,10,6,10,6,8,2,9,7,9,3,7,4,3,2,7,1,8,9,10,8,2,2,1,8,9,1,7,6,9,7,1];
array [1..64] of int: X_INTRODUCED_199_ = [3,1,2,3,2,1,10,5,6,4,9,3,10,1,6,9,5,8,3,9,9,10,1,3,5,10,3,5,5,10,9,5,7,9,6,9,8,9,6,4,8,8,7,1,1,1,4,5,10,10,10,6,10,2,9,3,9,10,6,3,5,8,8,9];
array [1..64] of int: X_INTRODUCED_200_ = [8,7,10,8,5,9,7,8,3,1,5,8,2,3,3,8,4,6,7,4,2,9,10,2,1,5,1,8,5,3,6,9,10,6,10,6,8,9,6,7,9,3,7,4,3,7,7,1,8,9,9,10,2,2,1,8,2,9,6,9,4,2,9,1];
array [1..72] of int: X_INTRODUCED_202_ = [5,7,1,6,7,6,8,3,9,1,3,10,7,1,6,9,10,6,3,9,8,4,6,10,1,6,9,7,9,9,10,10,2,5,5,10,9,2,10,4,6,9,9,7,6,2,9,9,7,8,10,10,8,8,2,3,4,6,6,7,6,5,8,2,3,6,3,1,3,3,7,1];
array [1..72] of int: X_INTRODUCED_203_ = [8,7,10,8,5,9,9,7,3,7,8,1,5,8,2,3,8,4,4,6,8,6,2,7,4,2,9,4,6,8,10,2,10,1,5,1,8,5,3,6,6,9,10,6,10,6,8,2,9,6,7,9,3,7,3,5,2,7,7,1,8,9,9,2,1,8,2,1,7,7,9,1];
array [1..68] of int: X_INTRODUCED_205_ = [10,1,2,4,2,8,9,10,6,10,2,7,2,4,9,8,7,3,6,4,7,8,2,5,5,8,7,9,6,9,3,6,7,1,5,4,9,8,2,5,7,4,9,7,10,4,5,6,1,5,6,4,3,2,6,4,2,6,4,1,7,6,5,9,8,1,5,9];
array [1..68] of int: X_INTRODUCED_206_ = [8,7,8,5,9,9,2,8,3,7,2,8,8,1,5,4,2,3,8,4,8,4,2,9,4,8,10,1,5,1,8,2,5,3,6,9,10,10,6,8,2,9,6,9,3,7,4,5,2,7,7,1,8,9,10,8,2,2,1,8,9,9,7,9,7,4,2,1];
array [1..2] of int: X_INTRODUCED_210_ = [1,-1];
var 0..508: X_INTRODUCED_16_;
var 0..508: X_INTRODUCED_17_;
var 0..508: X_INTRODUCED_18_;
var 0..508: X_INTRODUCED_19_;
var 0..508: X_INTRODUCED_20_;
var 0..508: X_INTRODUCED_21_;
var 0..508: X_INTRODUCED_22_;
var 0..508: X_INTRODUCED_23_;
var 0..508: X_INTRODUCED_24_;
var 0..508: X_INTRODUCED_25_;
var 0..508: X_INTRODUCED_26_;
var 0..508: X_INTRODUCED_27_;
var 0..508: X_INTRODUCED_28_;
var 0..508: X_INTRODUCED_29_;
var 0..508: X_INTRODUCED_30_;
var 0..508: X_INTRODUCED_31_;
var 0..508: X_INTRODUCED_32_;
var 0..508: X_INTRODUCED_33_;
var 0..508: X_INTRODUCED_34_;
var 0..508: X_INTRODUCED_35_;
var 0..508: X_INTRODUCED_36_;
var 0..508: X_INTRODUCED_37_;
var 0..508: X_INTRODUCED_38_;
var 0..508: X_INTRODUCED_39_;
var 0..508: X_INTRODUCED_40_;
var 0..508: X_INTRODUCED_41_;
var 0..508: X_INTRODUCED_42_;
var 0..508: X_INTRODUCED_43_;
var 0..508: X_INTRODUCED_44_;
var 0..508: X_INTRODUCED_45_;
var 0..508: X_INTRODUCED_46_;
var 0..508: X_INTRODUCED_47_;
var 0..508: X_INTRODUCED_48_;
var 0..508: X_INTRODUCED_49_;
var 0..508: X_INTRODUCED_50_;
var 0..508: X_INTRODUCED_51_;
var 0..508: X_INTRODUCED_52_;
var 0..508: X_INTRODUCED_53_;
var 0..508: X_INTRODUCED_54_;
var 0..508: X_INTRODUCED_55_;
var 0..508: X_INTRODUCED_56_;
var 0..508: X_INTRODUCED_57_;
var 0..508: X_INTRODUCED_58_;
var 0..508: X_INTRODUCED_59_;
var 0..508: X_INTRODUCED_60_;
var 0..508: X_INTRODUCED_61_;
var 0..508: X_INTRODUCED_62_;
var 0..508: X_INTRODUCED_63_;
var 0..508: X_INTRODUCED_64_;
var 0..508: X_INTRODUCED_65_;
var 0..508: X_INTRODUCED_66_;
var 0..508: X_INTRODUCED_67_;
var 0..508: X_INTRODUCED_68_;
var 0..508: X_INTRODUCED_69_;
var 0..508: X_INTRODUCED_70_;
var 0..508: X_INTRODUCED_71_;
var 0..508: X_INTRODUCED_72_;
var 0..508: X_INTRODUCED_73_;
var 0..508: X_INTRODUCED_74_;
var 0..508: X_INTRODUCED_75_;
var 0..508: X_INTRODUCED_76_;
var 0..508: X_INTRODUCED_77_;
var 0..508: X_INTRODUCED_78_;
var 0..508: X_INTRODUCED_79_;
var 0..508: X_INTRODUCED_80_;
var 0..508: X_INTRODUCED_81_;
var 0..508: X_INTRODUCED_82_;
var 0..508: X_INTRODUCED_83_;
var 0..508: X_INTRODUCED_84_;
var 0..508: X_INTRODUCED_85_;
var 0..508: X_INTRODUCED_86_;
var 0..508: X_INTRODUCED_87_;
var 0..508: X_INTRODUCED_88_;
var 0..508: X_INTRODUCED_89_;
var 0..508: X_INTRODUCED_90_;
var 0..508: X_INTRODUCED_91_;
var 0..508: X_INTRODUCED_92_;
var 0..508: X_INTRODUCED_93_;
var 0..508: X_INTRODUCED_94_;
var 0..508: X_INTRODUCED_95_;
var 0..508: X_INTRODUCED_96_;
var 0..508: X_INTRODUCED_97_;
var 0..508: X_INTRODUCED_98_;
var 0..508: X_INTRODUCED_99_;
var 0..508: X_INTRODUCED_100_;
var 0..508: X_INTRODUCED_101_;
var 0..508: X_INTRODUCED_102_;
var 0..508: X_INTRODUCED_103_;
var 0..508: X_INTRODUCED_104_;
var 0..508: X_INTRODUCED_105_;
var 0..509: Objective:: output_var;
array [1..90] of var int: Start:: output_array([1..90]) = [X_INTRODUCED_16_,X_INTRODUCED_17_,X_INTRODUCED_18_,X_INTRODUCED_19_,X_INTRODUCED_20_,X_INTRODUCED_21_,X_INTRODUCED_22_,X_INTRODUCED_23_,X_INTRODUCED_24_,X_INTRODUCED_25_,X_INTRODUCED_26_,X_INTRODUCED_27_,X_INTRODUCED_28_,X_INTRODUCED_29_,X_INTRODUCED_30_,X_INTRODUCED_31_,X_INTRODUCED_32_,X_INTRODUCED_33_,X_INTRODUCED_34_,X_INTRODUCED_35_,X_INTRODUCED_36_,X_INTRODUCED_37_,X_INTRODUCED_38_,X_INTRODUCED_39_,X_INTRODUCED_40_,X_INTRODUCED_41_,X_INTRODUCED_42_,X_INTRODUCED_43_,X_INTRODUCED_44_,X_INTRODUCED_45_,X_INTRODUCED_46_,X_INTRODUCED_47_,X_INTRODUCED_48_,X_INTRODUCED_49_,X_INTRODUCED_50_,X_INTRODUCED_51_,X_INTRODUCED_52_,X_INTRODUCED_53_,X_INTRODUCED_54_,X_INTRODUCED_55_,X_INTRODUCED_56_,X_INTRODUCED_57_,X_INTRODUCED_58_,X_INTRODUCED_59_,X_INTRODUCED_60_,X_INTRODUCED_61_,X_INTRODUCED_62_,X_INTRODUCED_63_,X_INTRODUCED_64_,X_INTRODUCED_65_,X_INTRODUCED_66_,X_INTRODUCED_67_,X_INTRODUCED_68_,X_INTRODUCED_69_,X_INTRODUCED_70_,X_INTRODUCED_71_,X_INTRODUCED_72_,X_INTRODUCED_73_,X_INTRODUCED_74_,X_INTRODUCED_75_,X_INTRODUCED_76_,X_INTRODUCED_77_,X_INTRODUCED_78_,X_INTRODUCED_79_,X_INTRODUCED_80_,X_INTRODUCED_81_,X_INTRODUCED_82_,X_INTRODUCED_83_,X_INTRODUCED_84_,X_INTRODUCED_85_,X_INTRODUCED_86_,X_INTRODUCED_87_,X_INTRODUCED_88_,X_INTRODUCED_89_,X_INTRODUCED_90_,X_INTRODUCED_91_,X_INTRODUCED_92_,X_INTRODUCED_93_,X_INTRODUCED_94_,X_INTRODUCED_95_,X_INTRODUCED_96_,X_INTRODUCED_97_,X_INTRODUCED_98_,X_INTRODUCED_99_,X_INTRODUCED_100_,X_INTRODUCED_101_,X_INTRODUCED_102_,X_INTRODUCED_103_,X_INTRODUCED_104_,X_INTRODUCED_105_];
array [1..67] of var int: X_INTRODUCED_198_ ::var_is_introduced  = [X_INTRODUCED_16_,X_INTRODUCED_18_,X_INTRODUCED_19_,X_INTRODUCED_20_,X_INTRODUCED_21_,X_INTRODUCED_22_,X_INTRODUCED_23_,X_INTRODUCED_24_,X_INTRODUCED_26_,X_INTRODUCED_28_,X_INTRODUCED_29_,X_INTRODUCED_31_,X_INTRODUCED_32_,X_INTRODUCED_34_,X_INTRODUCED_35_,X_INTRODUCED_36_,X_INTRODUCED_37_,X_INTRODUCED_38_,X_INTRODUCED_40_,X_INTRODUCED_44_,X_INTRODUCED_46_,X_INTRODUCED_47_,X_INTRODUCED_49_,X_INTRODUCED_50_,X_INTRODUCED_51_,X_INTRODUCED_53_,X_INTRODUCED_54_,X_INTRODUCED_55_,X_INTRODUCED_56_,X_INTRODUCED_57_,X_INTRODUCED_58_,X_INTRODUCED_59_,X_INTRODUCED_61_,X_INTRODUCED_62_,X_INTRODUCED_63_,X_INTRODUCED_64_,X_INTRODUCED_66_,X_INTRODUCED_67_,X_INTRODUCED_68_,X_INTRODUCED_69_,X_INTRODUCED_70_,X_INTRODUCED_71_,X_INTRODUCED_72_,X_INTRODUCED_74_,X_INTRODUCED_75_,X_INTRODUCED_76_,X_INTRODUCED_77_,X_INTRODUCED_78_,X_INTRODUCED_79_,X_INTRODUCED_81_,X_INTRODUCED_83_,X_INTRODUCED_84_,X_INTRODUCED_85_,X_INTRODUCED_87_,X_INTRODUCED_88_,X_INTRODUCED_89_,X_INTRODUCED_90_,X_INTRODUCED_91_,X_INTRODUCED_92_,X_INTRODUCED_93_,X_INTRODUCED_95_,X_INTRODUCED_97_,X_INTRODUCED_98_,X_INTRODUCED_99_,X_INTRODUCED_100_,X_INTRODUCED_101_,X_INTRODUCED_105_];
array [1..64] of var int: X_INTRODUCED_201_ ::var_is_introduced  = [X_INTRODUCED_16_,X_INTRODUCED_17_,X_INTRODUCED_18_,X_INTRODUCED_19_,X_INTRODUCED_20_,X_INTRODUCED_22_,X_INTRODUCED_24_,X_INTRODUCED_25_,X_INTRODUCED_26_,X_INTRODUCED_32_,X_INTRODUCED_33_,X_INTRODUCED_34_,X_INTRODUCED_36_,X_INTRODUCED_37_,X_INTRODUCED_38_,X_INTRODUCED_39_,X_INTRODUCED_40_,X_INTRODUCED_42_,X_INTRODUCED_46_,X_INTRODUCED_47_,X_INTRODUCED_48_,X_INTRODUCED_49_,X_INTRODUCED_53_,X_INTRODUCED_54_,X_INTRODUCED_56_,X_INTRODUCED_57_,X_INTRODUCED_58_,X_INTRODUCED_59_,X_INTRODUCED_61_,X_INTRODUCED_62_,X_INTRODUCED_64_,X_INTRODUCED_65_,X_INTRODUCED_66_,X_INTRODUCED_67_,X_INTRODUCED_68_,X_INTRODUCED_69_,X_INTRODUCED_70_,X_INTRODUCED_72_,X_INTRODUCED_73_,X_INTRODUCED_74_,X_INTRODUCED_75_,X_INTRODUCED_76_,X_INTRODUCED_77_,X_INTRODUCED_78_,X_INTRODUCED_79_,X_INTRODUCED_82_,X_INTRODUCED_83_,X_INTRODUCED_84_,X_INTRODUCED_85_,X_INTRODUCED_86_,X_INTRODUCED_87_,X_INTRODUCED_88_,X_INTRODUCED_90_,X_INTRODUCED_91_,X_INTRODUCED_92_,X_INTRODUCED_93_,X_INTRODUCED_94_,X_INTRODUCED_95_,X_INTRODUCED_99_,X_INTRODUCED_100_,X_INTRODUCED_102_,X_INTRODUCED_103_,X_INTRODUCED_104_,X_INTRODUCED_105_];
array [1..72] of var int: X_INTRODUCED_204_ ::var_is_introduced  = [X_INTRODUCED_16_,X_INTRODUCED_17_,X_INTRODUCED_18_,X_INTRODUCED_19_,X_INTRODUCED_20_,X_INTRODUCED_21_,X_INTRODUCED_22_,X_INTRODUCED_24_,X_INTRODUCED_26_,X_INTRODUCED_27_,X_INTRODUCED_30_,X_INTRODUCED_31_,X_INTRODUCED_33_,X_INTRODUCED_34_,X_INTRODUCED_36_,X_INTRODUCED_37_,X_INTRODUCED_39_,X_INTRODUCED_40_,X_INTRODUCED_41_,X_INTRODUCED_42_,X_INTRODUCED_43_,X_INTRODUCED_44_,X_INTRODUCED_45_,X_INTRODUCED_46_,X_INTRODUCED_47_,X_INTRODUCED_48_,X_INTRODUCED_49_,X_INTRODUCED_50_,X_INTRODUCED_51_,X_INTRODUCED_52_,X_INTRODUCED_53_,X_INTRODUCED_54_,X_INTRODUCED_55_,X_INTRODUCED_56_,X_INTRODUCED_57_,X_INTRODUCED_58_,X_INTRODUCED_59_,X_INTRODUCED_61_,X_INTRODUCED_62_,X_INTRODUCED_63_,X_INTRODUCED_64_,X_INTRODUCED_65_,X_INTRODUCED_66_,X_INTRODUCED_67_,X_INTRODUCED_68_,X_INTRODUCED_69_,X_INTRODUCED_70_,X_INTRODUCED_71_,X_INTRODUCED_72_,X_INTRODUCED_73_,X_INTRODUCED_74_,X_INTRODUCED_75_,X_INTRODUCED_76_,X_INTRODUCED_77_,X_INTRODUCED_79_,X_INTRODUCED_80_,X_INTRODUCED_81_,X_INTRODUCED_82_,X_INTRODUCED_83_,X_INTRODUCED_84_,X_INTRODUCED_85_,X_INTRODUCED_86_,X_INTRODUCED_87_,X_INTRODUCED_91_,X_INTRODUCED_92_,X_INTRODUCED_93_,X_INTRODUCED_94_,X_INTRODUCED_97_,X_INTRODUCED_98_,X_INTRODUCED_101_,X_INTRODUCED_104_,X_INTRODUCED_105_];
array [1..68] of var int: X_INTRODUCED_207_ ::var_is_introduced  = [X_INTRODUCED_16_,X_INTRODUCED_17_,X_INTRODUCED_19_,X_INTRODUCED_20_,X_INTRODUCED_21_,X_INTRODUCED_22_,X_INTRODUCED_23_,X_INTRODUCED_25_,X_INTRODUCED_26_,X_INTRODUCED_27_,X_INTRODUCED_28_,X_INTRODUCED_29_,X_INTRODUCED_30_,X_INTRODUCED_31_,X_INTRODUCED_33_,X_INTRODUCED_35_,X_INTRODUCED_36_,X_INTRODUCED_37_,X_INTRODUCED_39_,X_INTRODUCED_41_,X_INTRODUCED_43_,X_INTRODUCED_47_,X_INTRODUCED_48_,X_INTRODUCED_49_,X_INTRODUCED_50_,X_INTRODUCED_52_,X_INTRODUCED_53_,X_INTRODUCED_56_,X_INTRODUCED_57_,X_INTRODUCED_58_,X_INTRODUCED_59_,X_INTRODUCED_60_,X_INTRODUCED_61_,X_INTRODUCED_62_,X_INTRODUCED_63_,X_INTRODUCED_65_,X_INTRODUCED_66_,X_INTRODUCED_68_,X_INTRODUCED_69_,X_INTRODUCED_70_,X_INTRODUCED_71_,X_INTRODUCED_72_,X_INTRODUCED_73_,X_INTRODUCED_75_,X_INTRODUCED_76_,X_INTRODUCED_77_,X_INTRODUCED_78_,X_INTRODUCED_80_,X_INTRODUCED_81_,X_INTRODUCED_82_,X_INTRODUCED_83_,X_INTRODUCED_84_,X_INTRODUCED_85_,X_INTRODUCED_87_,X_INTRODUCED_88_,X_INTRODUCED_89_,X_INTRODUCED_90_,X_INTRODUCED_91_,X_INTRODUCED_92_,X_INTRODUCED_93_,X_INTRODUCED_95_,X_INTRODUCED_96_,X_INTRODUCED_98_,X_INTRODUCED_100_,X_INTRODUCED_101_,X_INTRODUCED_102_,X_INTRODUCED_103_,X_INTRODUCED_105_];
array [1..91] of var int: X_INTRODUCED_213_ ::var_is_introduced  = [X_INTRODUCED_16_,X_INTRODUCED_17_,X_INTRODUCED_18_,X_INTRODUCED_19_,X_INTRODUCED_20_,X_INTRODUCED_21_,X_INTRODUCED_22_,X_INTRODUCED_23_,X_INTRODUCED_24_,X_INTRODUCED_25_,X_INTRODUCED_26_,X_INTRODUCED_27_,X_INTRODUCED_28_,X_INTRODUCED_29_,X_INTRODUCED_30_,X_INTRODUCED_31_,X_INTRODUCED_32_,X_INTRODUCED_33_,X_INTRODUCED_34_,X_INTRODUCED_35_,X_INTRODUCED_36_,X_INTRODUCED_37_,X_INTRODUCED_38_,X_INTRODUCED_39_,X_INTRODUCED_40_,X_INTRODUCED_41_,X_INTRODUCED_42_,X_INTRODUCED_43_,X_INTRODUCED_44_,X_INTRODUCED_45_,X_INTRODUCED_46_,X_INTRODUCED_47_,X_INTRODUCED_48_,X_INTRODUCED_49_,X_INTRODUCED_50_,X_INTRODUCED_51_,X_INTRODUCED_52_,X_INTRODUCED_53_,X_INTRODUCED_54_,X_INTRODUCED_55_,X_INTRODUCED_56_,X_INTRODUCED_57_,X_INTRODUCED_58_,X_INTRODUCED_59_,X_INTRODUCED_60_,X_INTRODUCED_61_,X_INTRODUCED_62_,X_INTRODUCED_63_,X_INTRODUCED_64_,X_INTRODUCED_65_,X_INTRODUCED_66_,X_INTRODUCED_67_,X_INTRODUCED_68_,X_INTRODUCED_69_,X_INTRODUCED_70_,X_INTRODUCED_71_,X_INTRODUCED_72_,X_INTRODUCED_73_,X_INTRODUCED_74_,X_INTRODUCED_75_,X_INTRODUCED_76_,X_INTRODUCED_77_,X_INTRODUCED_78_,X_INTRODUCED_79_,X_INTRODUCED_80_,X_INTRODUCED_81_,X_INTRODUCED_82_,X_INTRODUCED_83_,X_INTRODUCED_84_,X_INTRODUCED_85_,X_INTRODUCED_86_,X_INTRODUCED_87_,X_INTRODUCED_88_,X_INTRODUCED_89_,X_INTRODUCED_90_,X_INTRODUCED_91_,X_INTRODUCED_92_,X_INTRODUCED_93_,X_INTRODUCED_94_,X_INTRODUCED_95_,X_INTRODUCED_96_,X_INTRODUCED_97_,X_INTRODUCED_98_,X_INTRODUCED_99_,X_INTRODUCED_100_,X_INTRODUCED_101_,X_INTRODUCED_102_,X_INTRODUCED_103_,X_INTRODUCED_104_,X_INTRODUCED_105_,Objective];
constraint int_lin_le(X_INTRODUCED_109_,[X_INTRODUCED_16_,X_INTRODUCED_21_],-8);
constraint int_lin_le(X_INTRODUCED_109_,[X_INTRODUCED_16_,X_INTRODUCED_31_],-8);
constraint int_lin_le(X_INTRODUCED_109_,[X_INTRODUCED_16_,X_INTRODUCED_35_],-8);
constraint int_lin_le(X_INTRODUCED_109_,[X_INTRODUCED_17_,X_INTRODUCED_19_],-7);
constraint int_lin_le(X_INTRODUCED_109_,[X_INTRODUCED_17_,X_INTRODUCED_20_],-7);
constraint int_lin_le(X_INTRODUCED_109_,[X_INTRODUCED_17_,X_INTRODUCED_22_],-7);
constraint int_lin_le(X_INTRODUCED_109_,[X_INTRODUCED_18_,X_INTRODUCED_33_],-10);
constraint int_lin_le(X_INTRODUCED_109_,[X_INTRODUCED_18_,X_INTRODUCED_37_],-10);
constraint int_lin_le(X_INTRODUCED_109_,[X_INTRODUCED_19_,X_INTRODUCED_23_],-8);
constraint int_lin_le(X_INTRODUCED_109_,[X_INTRODUCED_19_,X_INTRODUCED_37_],-8);
constraint int_lin_le(X_INTRODUCED_109_,[X_INTRODUCED_19_,X_INTRODUCED_59_],-8);
constraint int_lin_le(X_INTRODUCED_109_,[X_INTRODUCED_20_,X_INTRODUCED_27_],-5);
constraint int_lin_le(X_INTRODUCED_109_,[X_INTRODUCED_20_,X_INTRODUCED_32_],-5);
constraint int_lin_le(X_INTRODUCED_109_,[X_INTRODUCED_20_,X_INTRODUCED_63_],-5);
constraint int_lin_le(X_INTRODUCED_109_,[X_INTRODUCED_21_,X_INTRODUCED_24_],-9);
constraint int_lin_le(X_INTRODUCED_109_,[X_INTRODUCED_21_,X_INTRODUCED_33_],-9);
constraint int_lin_le(X_INTRODUCED_109_,[X_INTRODUCED_21_,X_INTRODUCED_52_],-9);
constraint int_lin_le(X_INTRODUCED_109_,[X_INTRODUCED_22_,X_INTRODUCED_68_],-9);
constraint int_lin_le(X_INTRODUCED_109_,[X_INTRODUCED_22_,X_INTRODUCED_89_],-9);
constraint int_lin_le(X_INTRODUCED_109_,[X_INTRODUCED_23_,X_INTRODUCED_26_],-2);
constraint int_lin_le(X_INTRODUCED_109_,[X_INTRODUCED_23_,X_INTRODUCED_44_],-2);
constraint int_lin_le(X_INTRODUCED_109_,[X_INTRODUCED_23_,X_INTRODUCED_45_],-2);
constraint int_lin_le(X_INTRODUCED_109_,[X_INTRODUCED_24_,X_INTRODUCED_25_],-7);
constraint int_lin_le(X_INTRODUCED_109_,[X_INTRODUCED_24_,X_INTRODUCED_34_],-7);
constraint int_lin_le(X_INTRODUCED_109_,[X_INTRODUCED_24_,X_INTRODUCED_41_],-7);
constraint int_lin_le(X_INTRODUCED_109_,[X_INTRODUCED_25_,X_INTRODUCED_29_],-8);
constraint int_lin_le(X_INTRODUCED_109_,[X_INTRODUCED_25_,X_INTRODUCED_47_],-8);
constraint int_lin_le(X_INTRODUCED_109_,[X_INTRODUCED_25_,X_INTRODUCED_60_],-8);
constraint int_lin_le(X_INTRODUCED_109_,[X_INTRODUCED_26_,X_INTRODUCED_28_],-3);
constraint int_lin_le(X_INTRODUCED_109_,[X_INTRODUCED_26_,X_INTRODUCED_30_],-3);
constraint int_lin_le(X_INTRODUCED_109_,[X_INTRODUCED_26_,X_INTRODUCED_71_],-3);
constraint int_lin_le(X_INTRODUCED_109_,[X_INTRODUCED_27_,X_INTRODUCED_69_],-7);
constraint int_lin_le(X_INTRODUCED_109_,[X_INTRODUCED_27_,X_INTRODUCED_81_],-7);
constraint int_lin_le(X_INTRODUCED_109_,[X_INTRODUCED_28_,X_INTRODUCED_67_],-2);
constraint int_lin_le(X_INTRODUCED_109_,[X_INTRODUCED_28_,X_INTRODUCED_91_],-2);
constraint int_lin_le(X_INTRODUCED_109_,[X_INTRODUCED_29_,X_INTRODUCED_42_],-8);
constraint int_lin_le(X_INTRODUCED_109_,[X_INTRODUCED_29_,X_INTRODUCED_81_],-8);
constraint int_lin_le(X_INTRODUCED_109_,[X_INTRODUCED_30_,X_INTRODUCED_39_],-8);
constraint int_lin_le(X_INTRODUCED_109_,[X_INTRODUCED_30_,X_INTRODUCED_43_],-8);
constraint int_lin_le(X_INTRODUCED_109_,[X_INTRODUCED_30_,X_INTRODUCED_56_],-8);
constraint int_lin_le(X_INTRODUCED_109_,[X_INTRODUCED_31_,X_INTRODUCED_36_],-1);
constraint int_lin_le(X_INTRODUCED_109_,[X_INTRODUCED_31_,X_INTRODUCED_38_],-1);
constraint int_lin_le(X_INTRODUCED_109_,[X_INTRODUCED_32_,X_INTRODUCED_56_],-1);
constraint int_lin_le(X_INTRODUCED_109_,[X_INTRODUCED_32_,X_INTRODUCED_61_],-1);
constraint int_lin_le(X_INTRODUCED_109_,[X_INTRODUCED_32_,X_INTRODUCED_80_],-1);
constraint int_lin_le(X_INTRODUCED_109_,[X_INTRODUCED_33_,X_INTRODUCED_36_],-5);
constraint int_lin_le(X_INTRODUCED_109_,[X_INTRODUCED_33_,X_INTRODUCED_51_],-5);
constraint int_lin_le(X_INTRODUCED_109_,[X_INTRODUCED_34_,X_INTRODUCED_49_],-8);
constraint int_lin_le(X_INTRODUCED_109_,[X_INTRODUCED_34_,X_INTRODUCED_82_],-8);
constraint int_lin_le(X_INTRODUCED_109_,[X_INTRODUCED_34_,X_INTRODUCED_83_],-8);
constraint int_lin_le(X_INTRODUCED_109_,[X_INTRODUCED_35_,X_INTRODUCED_40_],-4);
constraint int_lin_le(X_INTRODUCED_109_,[X_INTRODUCED_35_,X_INTRODUCED_66_],-4);
constraint int_lin_le(X_INTRODUCED_109_,[X_INTRODUCED_35_,X_INTRODUCED_83_],-4);
constraint int_lin_le(X_INTRODUCED_109_,[X_INTRODUCED_36_,X_INTRODUCED_42_],-2);
constraint int_lin_le(X_INTRODUCED_109_,[X_INTRODUCED_36_,X_INTRODUCED_67_],-2);
constraint int_lin_le(X_INTRODUCED_109_,[X_INTRODUCED_36_,X_INTRODUCED_78_],-2);
constraint int_lin_le(X_INTRODUCED_109_,[X_INTRODUCED_37_,X_INTRODUCED_53_],-3);
constraint int_lin_le(X_INTRODUCED_109_,[X_INTRODUCED_37_,X_INTRODUCED_61_],-3);
constraint int_lin_le(X_INTRODUCED_109_,[X_INTRODUCED_37_,X_INTRODUCED_100_],-3);
constraint int_lin_le(X_INTRODUCED_109_,[X_INTRODUCED_38_,X_INTRODUCED_57_],-3);
constraint int_lin_le(X_INTRODUCED_109_,[X_INTRODUCED_38_,X_INTRODUCED_74_],-3);
constraint int_lin_le(X_INTRODUCED_109_,[X_INTRODUCED_39_,X_INTRODUCED_42_],-8);
constraint int_lin_le(X_INTRODUCED_109_,[X_INTRODUCED_39_,X_INTRODUCED_46_],-8);
constraint int_lin_le(X_INTRODUCED_109_,[X_INTRODUCED_39_,X_INTRODUCED_74_],-8);
constraint int_lin_le(X_INTRODUCED_109_,[X_INTRODUCED_40_,X_INTRODUCED_45_],-4);
constraint int_lin_le(X_INTRODUCED_109_,[X_INTRODUCED_40_,X_INTRODUCED_51_],-4);
constraint int_lin_le(X_INTRODUCED_109_,[X_INTRODUCED_40_,X_INTRODUCED_58_],-4);
constraint int_lin_le(X_INTRODUCED_109_,[X_INTRODUCED_41_,X_INTRODUCED_79_],-4);
constraint int_lin_le(X_INTRODUCED_109_,[X_INTRODUCED_41_,X_INTRODUCED_93_],-4);
constraint int_lin_le(X_INTRODUCED_109_,[X_INTRODUCED_41_,X_INTRODUCED_95_],-4);
constraint int_lin_le(X_INTRODUCED_109_,[X_INTRODUCED_42_,X_INTRODUCED_61_],-6);
constraint int_lin_le(X_INTRODUCED_109_,[X_INTRODUCED_42_,X_INTRODUCED_77_],-6);
constraint int_lin_le(X_INTRODUCED_109_,[X_INTRODUCED_42_,X_INTRODUCED_97_],-6);
constraint int_lin_le(X_INTRODUCED_109_,[X_INTRODUCED_43_,X_INTRODUCED_54_],-8);
constraint int_lin_le(X_INTRODUCED_109_,[X_INTRODUCED_43_,X_INTRODUCED_60_],-8);
constraint int_lin_le(X_INTRODUCED_109_,[X_INTRODUCED_44_,X_INTRODUCED_54_],-6);
constraint int_lin_le(X_INTRODUCED_109_,[X_INTRODUCED_44_,X_INTRODUCED_68_],-6);
constraint int_lin_le(X_INTRODUCED_109_,[X_INTRODUCED_44_,X_INTRODUCED_88_],-6);
constraint int_lin_le(X_INTRODUCED_109_,[X_INTRODUCED_45_,X_INTRODUCED_49_],-2);
constraint int_lin_le(X_INTRODUCED_109_,[X_INTRODUCED_45_,X_INTRODUCED_80_],-2);
constraint int_lin_le(X_INTRODUCED_109_,[X_INTRODUCED_45_,X_INTRODUCED_82_],-2);
constraint int_lin_le(X_INTRODUCED_109_,[X_INTRODUCED_46_,X_INTRODUCED_55_],-7);
constraint int_lin_le(X_INTRODUCED_109_,[X_INTRODUCED_46_,X_INTRODUCED_79_],-7);
constraint int_lin_le(X_INTRODUCED_109_,[X_INTRODUCED_46_,X_INTRODUCED_85_],-7);
constraint int_lin_le(X_INTRODUCED_109_,[X_INTRODUCED_47_,X_INTRODUCED_48_],-4);
constraint int_lin_le(X_INTRODUCED_109_,[X_INTRODUCED_47_,X_INTRODUCED_50_],-4);
constraint int_lin_le(X_INTRODUCED_109_,[X_INTRODUCED_47_,X_INTRODUCED_58_],-4);
constraint int_lin_le(X_INTRODUCED_109_,[X_INTRODUCED_48_,X_INTRODUCED_49_],-2);
constraint int_lin_le(X_INTRODUCED_109_,[X_INTRODUCED_48_,X_INTRODUCED_63_],-2);
constraint int_lin_le(X_INTRODUCED_109_,[X_INTRODUCED_48_,X_INTRODUCED_87_],-2);
constraint int_lin_le(X_INTRODUCED_109_,[X_INTRODUCED_49_,X_INTRODUCED_65_],-9);
constraint int_lin_le(X_INTRODUCED_109_,[X_INTRODUCED_49_,X_INTRODUCED_85_],-9);
constraint int_lin_le(X_INTRODUCED_109_,[X_INTRODUCED_49_,X_INTRODUCED_102_],-9);
constraint int_lin_le(X_INTRODUCED_109_,[X_INTRODUCED_50_,X_INTRODUCED_73_],-4);
constraint int_lin_le(X_INTRODUCED_109_,[X_INTRODUCED_50_,X_INTRODUCED_75_],-4);
constraint int_lin_le(X_INTRODUCED_109_,[X_INTRODUCED_51_,X_INTRODUCED_72_],-6);
constraint int_lin_le(X_INTRODUCED_109_,[X_INTRODUCED_51_,X_INTRODUCED_87_],-6);
constraint int_lin_le(X_INTRODUCED_109_,[X_INTRODUCED_51_,X_INTRODUCED_104_],-6);
constraint int_lin_le(X_INTRODUCED_109_,[X_INTRODUCED_52_,X_INTRODUCED_62_],-8);
constraint int_lin_le(X_INTRODUCED_109_,[X_INTRODUCED_52_,X_INTRODUCED_69_],-8);
constraint int_lin_le(X_INTRODUCED_109_,[X_INTRODUCED_52_,X_INTRODUCED_84_],-8);
constraint int_lin_le(X_INTRODUCED_109_,[X_INTRODUCED_53_,X_INTRODUCED_67_],-10);
constraint int_lin_le(X_INTRODUCED_109_,[X_INTRODUCED_53_,X_INTRODUCED_71_],-10);
constraint int_lin_le(X_INTRODUCED_109_,[X_INTRODUCED_53_,X_INTRODUCED_92_],-10);
constraint int_lin_le(X_INTRODUCED_109_,[X_INTRODUCED_54_,X_INTRODUCED_55_],-2);
constraint int_lin_le(X_INTRODUCED_109_,[X_INTRODUCED_54_,X_INTRODUCED_65_],-2);
constraint int_lin_le(X_INTRODUCED_109_,[X_INTRODUCED_55_,X_INTRODUCED_57_],-10);
constraint int_lin_le(X_INTRODUCED_109_,[X_INTRODUCED_55_,X_INTRODUCED_63_],-10);
constraint int_lin_le(X_INTRODUCED_109_,[X_INTRODUCED_55_,X_INTRODUCED_66_],-10);
constraint int_lin_le(X_INTRODUCED_109_,[X_INTRODUCED_56_,X_INTRODUCED_58_],-1);
constraint int_lin_le(X_INTRODUCED_109_,[X_INTRODUCED_56_,X_INTRODUCED_102_],-1);
constraint int_lin_le(X_INTRODUCED_109_,[X_INTRODUCED_57_,X_INTRODUCED_64_],-5);
constraint int_lin_le(X_INTRODUCED_109_,[X_INTRODUCED_57_,X_INTRODUCED_69_],-5);
constraint int_lin_le(X_INTRODUCED_109_,[X_INTRODUCED_57_,X_INTRODUCED_95_],-5);
constraint int_lin_le(X_INTRODUCED_109_,[X_INTRODUCED_58_,X_INTRODUCED_75_],-1);
constraint int_lin_le(X_INTRODUCED_109_,[X_INTRODUCED_59_,X_INTRODUCED_62_],-8);
constraint int_lin_le(X_INTRODUCED_109_,[X_INTRODUCED_59_,X_INTRODUCED_64_],-8);
constraint int_lin_le(X_INTRODUCED_109_,[X_INTRODUCED_59_,X_INTRODUCED_75_],-8);
constraint int_lin_le(X_INTRODUCED_109_,[X_INTRODUCED_60_,X_INTRODUCED_73_],-2);
constraint int_lin_le(X_INTRODUCED_109_,[X_INTRODUCED_60_,X_INTRODUCED_79_],-2);
constraint int_lin_le(X_INTRODUCED_109_,[X_INTRODUCED_60_,X_INTRODUCED_91_],-2);
constraint int_lin_le(X_INTRODUCED_109_,[X_INTRODUCED_61_,X_INTRODUCED_87_],-5);
constraint int_lin_le(X_INTRODUCED_109_,[X_INTRODUCED_61_,X_INTRODUCED_98_],-5);
constraint int_lin_le(X_INTRODUCED_109_,[X_INTRODUCED_62_,X_INTRODUCED_65_],-3);
constraint int_lin_le(X_INTRODUCED_109_,[X_INTRODUCED_62_,X_INTRODUCED_72_],-3);
constraint int_lin_le(X_INTRODUCED_109_,[X_INTRODUCED_62_,X_INTRODUCED_85_],-3);
constraint int_lin_le(X_INTRODUCED_109_,[X_INTRODUCED_63_,X_INTRODUCED_73_],-6);
constraint int_lin_le(X_INTRODUCED_109_,[X_INTRODUCED_63_,X_INTRODUCED_78_],-6);
constraint int_lin_le(X_INTRODUCED_109_,[X_INTRODUCED_63_,X_INTRODUCED_100_],-6);
constraint int_lin_le(X_INTRODUCED_109_,[X_INTRODUCED_64_,X_INTRODUCED_89_],-6);
constraint int_lin_le(X_INTRODUCED_109_,[X_INTRODUCED_64_,X_INTRODUCED_98_],-6);
constraint int_lin_le(X_INTRODUCED_109_,[X_INTRODUCED_65_,X_INTRODUCED_90_],-9);
constraint int_lin_le(X_INTRODUCED_109_,[X_INTRODUCED_66_,X_INTRODUCED_76_],-10);
constraint int_lin_le(X_INTRODUCED_109_,[X_INTRODUCED_66_,X_INTRODUCED_84_],-10);
constraint int_lin_le(X_INTRODUCED_109_,[X_INTRODUCED_66_,X_INTRODUCED_93_],-10);
constraint int_lin_le(X_INTRODUCED_109_,[X_INTRODUCED_67_,X_INTRODUCED_70_],-6);
constraint int_lin_le(X_INTRODUCED_109_,[X_INTRODUCED_68_,X_INTRODUCED_70_],-10);
constraint int_lin_le(X_INTRODUCED_109_,[X_INTRODUCED_68_,X_INTRODUCED_71_],-10);
constraint int_lin_le(X_INTRODUCED_109_,[X_INTRODUCED_68_,X_INTRODUCED_77_],-10);
constraint int_lin_le(X_INTRODUCED_109_,[X_INTRODUCED_69_,X_INTRODUCED_72_],-6);
constraint int_lin_le(X_INTRODUCED_109_,[X_INTRODUCED_69_,X_INTRODUCED_78_],-6);
constraint int_lin_le(X_INTRODUCED_109_,[X_INTRODUCED_70_,X_INTRODUCED_74_],-8);
constraint int_lin_le(X_INTRODUCED_109_,[X_INTRODUCED_70_,X_INTRODUCED_99_],-8);
constraint int_lin_le(X_INTRODUCED_109_,[X_INTRODUCED_71_,X_INTRODUCED_99_],-2);
constraint int_lin_le(X_INTRODUCED_109_,[X_INTRODUCED_72_,X_INTRODUCED_92_],-9);
constraint int_lin_le(X_INTRODUCED_109_,[X_INTRODUCED_73_,X_INTRODUCED_76_],-6);
constraint int_lin_le(X_INTRODUCED_109_,[X_INTRODUCED_73_,X_INTRODUCED_77_],-6);
constraint int_lin_le(X_INTRODUCED_109_,[X_INTRODUCED_74_,X_INTRODUCED_76_],-7);
constraint int_lin_le(X_INTRODUCED_109_,[X_INTRODUCED_74_,X_INTRODUCED_81_],-7);
constraint int_lin_le(X_INTRODUCED_109_,[X_INTRODUCED_74_,X_INTRODUCED_83_],-7);
constraint int_lin_le(X_INTRODUCED_109_,[X_INTRODUCED_75_,X_INTRODUCED_90_],-9);
constraint int_lin_le(X_INTRODUCED_109_,[X_INTRODUCED_75_,X_INTRODUCED_103_],-9);
constraint int_lin_le(X_INTRODUCED_109_,[X_INTRODUCED_76_,X_INTRODUCED_86_],-3);
constraint int_lin_le(X_INTRODUCED_109_,[X_INTRODUCED_77_,X_INTRODUCED_84_],-7);
constraint int_lin_le(X_INTRODUCED_109_,[X_INTRODUCED_77_,X_INTRODUCED_92_],-7);
constraint int_lin_le(X_INTRODUCED_109_,[X_INTRODUCED_78_,X_INTRODUCED_80_],-4);
constraint int_lin_le(X_INTRODUCED_109_,[X_INTRODUCED_78_,X_INTRODUCED_82_],-4);
constraint int_lin_le(X_INTRODUCED_109_,[X_INTRODUCED_79_,X_INTRODUCED_94_],-3);
constraint int_lin_le(X_INTRODUCED_109_,[X_INTRODUCED_80_,X_INTRODUCED_86_],-5);
constraint int_lin_le(X_INTRODUCED_109_,[X_INTRODUCED_80_,X_INTRODUCED_94_],-5);
constraint int_lin_le(X_INTRODUCED_109_,[X_INTRODUCED_81_,X_INTRODUCED_98_],-2);
constraint int_lin_le(X_INTRODUCED_109_,[X_INTRODUCED_82_,X_INTRODUCED_97_],-7);
constraint int_lin_le(X_INTRODUCED_109_,[X_INTRODUCED_83_,X_INTRODUCED_105_],-7);
constraint int_lin_le(X_INTRODUCED_109_,[X_INTRODUCED_84_,X_INTRODUCED_86_],-1);
constraint int_lin_le(X_INTRODUCED_109_,[X_INTRODUCED_84_,X_INTRODUCED_102_],-1);
constraint int_lin_le(X_INTRODUCED_109_,[X_INTRODUCED_85_,X_INTRODUCED_88_],-8);
constraint int_lin_le(X_INTRODUCED_109_,[X_INTRODUCED_85_,X_INTRODUCED_89_],-8);
constraint int_lin_le(X_INTRODUCED_109_,[X_INTRODUCED_85_,X_INTRODUCED_90_],-8);
constraint int_lin_le(X_INTRODUCED_109_,[X_INTRODUCED_86_,X_INTRODUCED_101_],-9);
constraint int_lin_le(X_INTRODUCED_109_,[X_INTRODUCED_87_,X_INTRODUCED_88_],-9);
constraint int_lin_le(X_INTRODUCED_109_,[X_INTRODUCED_87_,X_INTRODUCED_94_],-9);
constraint int_lin_le(X_INTRODUCED_109_,[X_INTRODUCED_88_,X_INTRODUCED_96_],-10);
constraint int_lin_le(X_INTRODUCED_109_,[X_INTRODUCED_89_,X_INTRODUCED_91_],-8);
constraint int_lin_le(X_INTRODUCED_109_,[X_INTRODUCED_90_,X_INTRODUCED_93_],-2);
constraint int_lin_le(X_INTRODUCED_109_,[X_INTRODUCED_90_,X_INTRODUCED_95_],-2);
constraint int_lin_le(X_INTRODUCED_109_,[X_INTRODUCED_91_,X_INTRODUCED_96_],-2);
constraint int_lin_le(X_INTRODUCED_109_,[X_INTRODUCED_91_,X_INTRODUCED_104_],-2);
constraint int_lin_le(X_INTRODUCED_109_,[X_INTRODUCED_92_,X_INTRODUCED_96_],-1);
constraint int_lin_le(X_INTRODUCED_109_,[X_INTRODUCED_93_,X_INTRODUCED_100_],-8);
constraint int_lin_le(X_INTRODUCED_109_,[X_INTRODUCED_94_,X_INTRODUCED_101_],-2);
constraint int_lin_le(X_INTRODUCED_109_,[X_INTRODUCED_95_,X_INTRODUCED_97_],-9);
constraint int_lin_le(X_INTRODUCED_109_,[X_INTRODUCED_96_,X_INTRODUCED_101_],-9);
constraint int_lin_le(X_INTRODUCED_109_,[X_INTRODUCED_97_,X_INTRODUCED_99_],-1);
constraint int_lin_le(X_INTRODUCED_109_,[X_INTRODUCED_98_,X_INTRODUCED_103_],-7);
constraint int_lin_le(X_INTRODUCED_109_,[X_INTRODUCED_99_,X_INTRODUCED_104_],-6);
constraint int_lin_le(X_INTRODUCED_109_,[X_INTRODUCED_100_,X_INTRODUCED_105_],-9);
constraint int_lin_le(X_INTRODUCED_109_,[X_INTRODUCED_101_,X_INTRODUCED_103_],-7);
constraint int_lin_le(X_INTRODUCED_109_,[X_INTRODUCED_102_,X_INTRODUCED_105_],-4);
constraint pumpkin_cumulative(X_INTRODUCED_198_,X_INTRODUCED_197_,X_INTRODUCED_196_,30);
constraint pumpkin_cumulative(X_INTRODUCED_201_,X_INTRODUCED_200_,X_INTRODUCED_199_,31);
constraint pumpkin_cumulative(X_INTRODUCED_204_,X_INTRODUCED_203_,X_INTRODUCED_202_,34);
constraint pumpkin_cumulative(X_INTRODUCED_207_,X_INTRODUCED_206_,X_INTRODUCED_205_,28);
constraint int_lin_le(X_INTRODUCED_210_,[X_INTRODUCED_103_,Objective],-2);
constraint int_lin_le(X_INTRODUCED_210_,[X_INTRODUCED_104_,Objective],-9);
constraint int_lin_le(X_INTRODUCED_210_,[X_INTRODUCED_105_,Objective],-1);
solve :: int_search(X_INTRODUCED_213_,smallest,indomain_min,complete) minimize Objective;
